p cnf 7230 17
-2438 -3106 3589 0
3106 -3589 0
-2448 -3170 -3594 0
-3118 -3120 -3592 0
-2440 -3028 -3590 0
2448 -3595 0
3118 -3593 0
2440 -3591 0
3594 3595 0
3592 3593 0
3590 3591 0
3170 -3595 0
3120 -3593 0
3028 -3591 0
3174 -3597 0
3588 3589 0
-3588 -3589 0
